
Gurobi 6.0.4 (win64) logging started 06/18/15 16:07:40

Read LP format model from file C:\MT\repository\VRPTWMS\instances\mip\freight\N6-C_DV10-C_SV50_F14_3_No_1.lp
Reading time = 0.01 seconds
(null): 217 rows, 141 columns, 849 nonzeros
Optimize a model with 217 rows, 141 columns and 849 nonzeros
Model has 294 quadratic constraints
Coefficient statistics:
  Matrix range    [1e+00, 1e+06]
  Objective range [7e+04, 1e+07]
  Bounds range    [1e+00, 1e+06]
  RHS range       [1e+00, 1e+06]
Presolve removed 34 rows and 13 columns
Presolve time: 0.02s
Presolved: 859 rows, 484 columns, 3805 nonzeros
Variable types: 320 continuous, 164 integer (124 binary)
Found heuristic solution: objective 6.242020e+07

Root relaxation: objective 5.695066e+06, 145 iterations, 0.00 seconds

    Nodes    |    Current Node    |     Objective Bounds      |     Work
 Expl Unexpl |  Obj  Depth IntInf | Incumbent    BestBd   Gap | It/Node Time

     0     0 5695066.41    0   51 6.2420e+07 5695066.41  90.9%     -    0s
H    0     0                    5.205430e+07 5695066.41  89.1%     -    0s
H    0     0                    4.190380e+07 5695066.41  86.4%     -    0s
     0     0 1.1653e+07    0   60 4.1904e+07 1.1653e+07  72.2%     -    0s
     0     0 1.1768e+07    0   77 4.1904e+07 1.1768e+07  71.9%     -    0s
     0     0 1.1788e+07    0   85 4.1904e+07 1.1788e+07  71.9%     -    0s
     0     0 1.1793e+07    0   75 4.1904e+07 1.1793e+07  71.9%     -    0s
     0     0 1.1798e+07    0   77 4.1904e+07 1.1798e+07  71.8%     -    0s
     0     0 1.1798e+07    0   78 4.1904e+07 1.1798e+07  71.8%     -    0s
     0     0 1.1798e+07    0   78 4.1904e+07 1.1798e+07  71.8%     -    0s
     0     2 1.1798e+07    0   78 4.1904e+07 1.1798e+07  71.8%     -    0s
*   26     6              13    3.303260e+07 1.1838e+07  64.2%  30.7    0s
H   55    24                    3.248260e+07 1.1838e+07  63.6%  41.4    0s
H  935   138                    3.239730e+07 1.8610e+07  42.6%  42.4    0s
* 1079   120              12    3.223450e+07 2.1857e+07  32.2%  41.5    1s
H 1110   125                    3.199060e+07 2.1857e+07  31.7%  41.3    1s

Cutting planes:
  Cover: 123
  Implied bound: 178
  Clique: 46
  MIR: 66
  Flow cover: 5
  GUB cover: 8

Explored 2092 nodes (75960 simplex iterations) in 1.79 seconds
Thread count was 2 (of 4 available processors)

Optimal solution found (tolerance 1.00e-04)
Best objective 3.199060000000e+07, best bound 3.199060000000e+07, gap 0.0%
k_c1	0.0
k_c2	60000.0
k_c3	100000.0
k_c4	100000.0
k_c5	100000.0
k_c6	30000.0
k_dN	-0.0
kDash_c1	0.0
kDash_c2	-0.0
kDash_c3	10000.0
kDash_c4	40000.0
kDash_c5	60000.0
kDash_c6	0.0
o_1	1.0
o_2	-0.0
o_3	0.0
o_4	0.0
o_5	0.0
o_6	0.0
p_1	1.0
p_2	0.0
p_3	0.0
p_4	0.0
p_5	-0.0
p_6	1.0
phi_c1	4823.0
phi_c2	42780.0
phi_c3	123817.0
phi_c4	126807.0
phi_c5	59667.0
phi_c6	104010.0
phi_d0	140000.0
phi_dN	-0.0
pi_c1	100000.0
pi_c2	100000.0
pi_c3	90000.0
pi_c4	60000.0
pi_c5	40000.0
pi_c6	200000.0
pi_dN	-0.0
tauD_c1	811975.0
tauD_c2	733100.0
tauD_c3	250000.0
tauD_c4	250000.0
tauD_c5	600000.0
tauD_c6	363525.0
tauD_d0	-0.0
tauD_dN	1000000.0
tauS_c1	540700.0
tauS_c2	813175.0
tauS_c3	116800.0
tauS_c4	804788.0
tauS_c5	172100.0
tauS_c6	423525.0
tauS_d0	-0.0
tauS_dN	910000.0
x_c1_dN	1.0
x_c2_dN	1.0
x_c3_c1	1.0
x_c4_c6	1.0
x_c5_c2	1.0
x_c6_c5	1.0
x_d0_c3	1.0
x_d0_c4	1.0
z_c1_dN	1.0
z_c6_c1	1.0
z_d0_c6	1.0
